(set-info :Origin "This instance was generated by: BanditFuzz-- an RL fuzzer for SMT solvers" )
(set-info :Author "Joe Scott, Fed Mora, Vijay Ganesh" )
(set-info :Contact "Joe Scott, joseph.scott@uwaterloo.ca")
(set-logic QF_BV)
(declare-const bool_0 Bool)
(declare-const bool_1 Bool)
(declare-const bool_2 Bool)
(declare-const bool_3 Bool)
(declare-const bool_4 Bool)
(declare-const bv_0 (_ BitVec 32))
(declare-const bv_1 (_ BitVec 32))
(declare-const bv_2 (_ BitVec 32))
(declare-const bv_3 (_ BitVec 32))
(declare-const bv_4 (_ BitVec 32))
(assert (bvugt (bvxor (bvxor bv_0 #x6e6bb4b5 ) (bvand #xe2b1617e  bv_0)) (bvsrem (bvashr #xffbb6fb4  bv_4) (bvsdiv #x36a68bec  #x3d257bb4 ))))
(assert (bvule (bvsmod (bvshl #xf01f6dd6  bv_0) (bvnor #x37cfa76d  #x35c3217f )) (bvmul (bvmul #x2031c766  bv_0) (bvsmod bv_3 bv_0))))
(assert (not (and (=> bool_3 false) (bvsge #x3dbb1ca3  bv_3))))
(assert (bvsge (bvand (bvnor #x24147682  #x9fce47ce ) (bvsdiv #x7ddaeaf2  bv_3)) (bvshl (bvsmod #x3ada9242  #x83b35c67 ) (bvshl bv_1 #xc74622e6 ))))
(assert (bvsgt (bvlshr (bvsub #x94ad5505  bv_3) (bvudiv #x73355eb3  #x269723ec )) (bvxor (bvsrem #x6b5847e3  bv_1) (bvshl #x5be2744d  bv_1))))
(check-sat)
(exit)
